
Log started (V11.0.0) Sun Apr 13 13:00:42 2008

Tried aggregator 1 time.
Reduced MIP has 140 rows, 4001 columns, and 8040 nonzeros.
Presolve time =    0.03 sec.
Clique table members: 100.
MIP emphasis: balance optimality and feasibility.
MIP search method: dynamic search.
Parallel mode: none, using 1 thread.
Root relaxation solution time =    0.09 sec.

        Nodes                                         Cuts/
   Node  Left     Objective  IInf  Best Integer     Best Node    ItCnt     Gap

*     0+    0                         5459.0000        9.3154      701   99.83%
*     0+    0                           15.0000        9.3154      701   37.90%
      0     0       12.0000    30       15.0000      Fract: 3      735   20.00%
*     0+    0                           14.0000       12.0000      735   14.29%
      0     0       12.0000    32       14.0000      Cuts: 21      754   14.29%
*     0+    0                           13.0000       12.0000      754    7.69%
      0     0       12.0000    43       13.0000      Cuts: 55      808    7.69%
*     0+    0                           12.0000       12.0000      808    0.00%

Clique cuts applied:  30
Implied bound cuts applied:  2
Flow cuts applied:  11
Gomory fractional cuts applied:  1

Solution pool: 5 solutions saved.

MIP - Integer optimal solution:  Objective = 1.2000000000e+001
Solution time =    0.36 sec.  Iterations = 808  Nodes = 0


Incumbent solution
Variable Name           Solution Value
Cmax                         12.000000
X_1_28                        1.000000
X_2_12                        1.000000
X_3_1                         1.000000
X_4_39                        1.000000
X_5_11                        1.000000
X_6_7                         1.000000
X_7_35                        1.000000
X_8_19                        1.000000
X_9_31                        1.000000
X_10_33                       1.000000
X_11_24                       1.000000
X_12_27                       1.000000
X_13_18                       1.000000
X_14_4                        1.000000
X_15_33                       1.000000
X_16_15                       1.000000
X_17_20                       1.000000
X_18_30                       1.000000
X_19_15                       1.000000
X_20_36                       1.000000
X_21_12                       1.000000
X_22_40                       1.000000
X_23_18                       1.000000
X_24_2                        1.000000
X_25_7                        1.000000
X_26_18                       1.000000
X_27_10                       1.000000
X_28_34                       1.000000
X_29_29                       1.000000
X_30_36                       1.000000
X_31_14                       1.000000
X_32_7                        1.000000
X_33_21                       1.000000
X_34_11                       1.000000
X_35_23                       1.000000
X_36_3                        1.000000
X_37_37                       1.000000
X_38_19                       1.000000
X_39_28                       1.000000
X_40_26                       1.000000
X_41_25                       1.000000
X_42_25                       1.000000
X_43_39                       1.000000
X_44_38                       1.000000
X_45_38                       1.000000
X_46_8                        1.000000
X_47_10                       1.000000
X_48_5                        1.000000
X_49_32                       1.000000
X_50_6                        1.000000
X_51_12                       1.000000
X_52_36                       1.000000
X_53_9                        1.000000
X_54_22                       1.000000
X_55_27                       1.000000
X_56_2                        1.000000
X_57_26                       1.000000
X_58_32                       1.000000
X_59_31                       1.000000
X_60_33                       1.000000
X_61_6                        1.000000
X_62_32                       1.000000
X_63_14                       1.000000
X_64_20                       1.000000
X_65_22                       1.000000
X_66_1                        1.000000
X_67_27                       1.000000
X_68_14                       1.000000
X_69_35                       1.000000
X_70_27                       1.000000
X_71_29                       1.000000
X_72_15                       1.000000
X_73_12                       1.000000
X_74_32                       1.000000
X_75_5                        1.000000
X_76_17                       1.000000
X_77_16                       1.000000
X_78_24                       1.000000
X_79_12                       1.000000
X_80_27                       1.000000
X_81_29                       1.000000
X_82_13                       1.000000
X_83_19                       1.000000
X_84_40                       1.000000
X_85_3                        1.000000
X_86_36                       1.000000
X_87_34                       1.000000
X_88_23                       1.000000
X_89_25                       1.000000
X_90_23                       1.000000
X_91_5                        1.000000
X_92_7                        1.000000
X_93_11                       1.000000
X_94_2                        1.000000
X_95_7                        1.000000
X_96_1                        1.000000
X_97_33                       1.000000
X_98_13                       1.000000
X_99_4                        1.000000
X_100_30                      1.000000
All other variables in the range 1-4001 are 0.
